3 3 2
25 1 33 0 1 1 24 2 36 0 26 1 15 0 25 1 2 0 25 2 6 1 43 0 48 2 12 1 35 0 16 2 17 0 11 2 26 0 44 2 32 0 29 1 4 0 39 2 16 1 39 
25 0 29 1 39 2 31 0 16 1 23 0 20 2 16 0 39 2 3 1 32 0 2 2 14 0 18 1 7 2 42 1 26 2 42 0 44 1 14 2 34 1 38 0 37 1 17 0 34 2 11 
25 1 15 0 28 1 43 2 30 0 10 1 31 2 22 0 28 2 41 0 31 1 31 2 4 1 1 2 35 1 26 0 8 2 1 0 26 1 22 2 44 0 19 1 20 0 12 1 29 2 25 

-------------
